% seed = 8322333

mint = 31;
% maxt = 80;

nActs = 22;
dur = [0,2,5,4,1,4,4,5,1,7,4,7,10,6,3,1,2,4,5,3,2,0];

nSkills = 4;
sreq = [| 0,0,0,0,
	| 0,2,2,2,
	| 1,3,0,3,
	| 1,2,0,2,
	| 3,1,1,0,
	| 1,1,0,2,
	| 2,1,0,1,
	| 2,0,3,3,
	| 0,3,3,3,
	| 2,0,1,2,
	| 0,1,2,3,
	| 3,3,0,1,
	| 0,1,1,1,
	| 1,3,3,0,
	| 1,1,3,0,
	| 2,2,2,0,
	| 2,3,0,1,
	| 1,3,2,0,
	| 3,2,0,3,
	| 2,0,2,2,
	| 2,2,3,0,
	| 0,0,0,0, |];

nResources = 25;
mastery = [| false,false,true,true,
	| true,true,true,false,
	| false,true,false,false,
	| true,true,true,false,
	| true,true,false,true,
	| false,true,false,true,
	| false,false,true,false,
	| true,true,false,true,
	| false,true,false,true,
	| true,true,false,true,
	| false,false,false,true,
	| false,true,true,false,
	| true,true,true,false,
	| false,false,true,true,
	| false,true,false,true,
	| true,true,true,false,
	| false,true,true,false,
	| false,true,false,false,
	| true,true,true,false,
	| false,false,true,true,
	| false,true,false,true,
	| false,false,true,false,
	| false,false,true,true,
	| false,false,false,true,
	| false,false,true,false, |];

nPrecs = 37;
pred = [1,1,1,2,3,4,4,4,5,5,5,6,6,6,7,8,8,9,9,9,10,10,10,11,11,11,12,13,13,14,15,16,17,18,19,20,21];
succ = [2,3,4,21,12,10,5,6,9,7,8,17,13,15,15,21,14,20,12,16,11,14,16,12,20,13,18,19,21,15,19,18,20,19,22,22,22];

nUnrels = 114;
unpred = [2,2,2,2,2,2,2,2,2,2,2,2,2,2,2,2,2,2,3,3,3,3,3,3,3,3,3,3,3,3,3,3,3,5,5,5,5,5,6,6,6,6,6,6,6,6,6,7,7,7,7,7,7,7,7,7,7,7,7,8,8,8,8,8,8,8,8,8,9,9,9,9,9,9,9,10,11,11,11,11,12,12,12,12,12,12,12,13,13,13,13,13,13,14,14,14,14,14,15,15,15,15,15,16,16,16,17,17,17,18,18,19,19,20];
unsucc = [3,4,5,6,7,8,9,10,11,12,13,14,15,16,17,18,19,20,4,5,6,7,8,9,10,11,13,14,15,16,17,20,21,6,10,11,13,17,7,8,9,10,11,12,14,16,18,8,9,10,11,12,13,14,16,17,18,20,21,9,10,11,12,13,16,17,18,20,10,11,13,14,15,17,21,17,14,15,16,17,13,14,15,16,17,20,21,14,15,16,17,18,20,16,17,18,20,21,16,17,18,20,21,17,20,21,18,19,21,20,21,20,21,21];

USEFUL_RES = [{},
	{1,2,3,4,5,6,7,8,9,10,11,12,13,14,15,16,17,18,19,20,21,22,23,24,25},
	{1,2,3,4,5,6,8,9,10,11,12,13,14,15,16,17,18,19,20,21,23,24},
	{1,2,3,4,5,6,8,9,10,11,12,13,14,15,16,17,18,19,20,21,23,24},
	{1,2,3,4,5,6,7,8,9,10,12,13,14,15,16,17,18,19,20,21,22,23,25},
	{1,2,3,4,5,6,8,9,10,11,12,13,14,15,16,17,18,19,20,21,23,24},
	{1,2,3,4,5,6,8,9,10,11,12,13,14,15,16,17,18,19,20,21,23,24},
	{1,2,4,5,6,7,8,9,10,11,12,13,14,15,16,17,19,20,21,22,23,24,25},
	{1,2,3,4,5,6,7,8,9,10,11,12,13,14,15,16,17,18,19,20,21,22,23,24,25},
	{1,2,4,5,6,7,8,9,10,11,12,13,14,15,16,17,19,20,21,22,23,24,25},
	{1,2,3,4,5,6,7,8,9,10,11,12,13,14,15,16,17,18,19,20,21,22,23,24,25},
	{1,2,3,4,5,6,8,9,10,11,12,13,14,15,16,17,18,19,20,21,23,24},
	{1,2,3,4,5,6,7,8,9,10,11,12,13,14,15,16,17,18,19,20,21,22,23,24,25},
	{1,2,3,4,5,6,7,8,9,10,12,13,14,15,16,17,18,19,20,21,22,23,25},
	{1,2,3,4,5,6,7,8,9,10,12,13,14,15,16,17,18,19,20,21,22,23,25},
	{1,2,3,4,5,6,7,8,9,10,12,13,14,15,16,17,18,19,20,21,22,23,25},
	{1,2,3,4,5,6,8,9,10,11,12,13,14,15,16,17,18,19,20,21,23,24},
	{1,2,3,4,5,6,7,8,9,10,12,13,14,15,16,17,18,19,20,21,22,23,25},
	{1,2,3,4,5,6,8,9,10,11,12,13,14,15,16,17,18,19,20,21,23,24},
	{1,2,4,5,6,7,8,9,10,11,12,13,14,15,16,17,19,20,21,22,23,24,25},
	{1,2,3,4,5,6,7,8,9,10,12,13,14,15,16,17,18,19,20,21,22,23,25},
	{}];

POTENTIAL_ACT = [{2,3,4,5,6,7,8,9,10,11,12,13,14,15,16,17,18,19,20,21},
	{2,3,4,5,6,7,8,9,10,11,12,13,14,15,16,17,18,19,20,21},
	{2,3,4,5,6,7,9,11,12,13,14,15,16,17,18,19,21},
	{2,3,4,5,6,7,8,9,10,11,12,13,14,15,16,17,18,19,20,21},
	{2,3,4,5,6,7,8,9,10,11,12,13,14,15,16,17,18,19,20,21},
	{2,3,4,5,6,7,8,9,10,11,12,13,14,15,16,17,18,19,20,21},
	{2,5,8,9,10,11,13,14,15,16,18,20,21},
	{2,3,4,5,6,7,8,9,10,11,12,13,14,15,16,17,18,19,20,21},
	{2,3,4,5,6,7,8,9,10,11,12,13,14,15,16,17,18,19,20,21},
	{2,3,4,5,6,7,8,9,10,11,12,13,14,15,16,17,18,19,20,21},
	{2,3,4,6,7,8,9,10,11,12,13,17,19,20},
	{2,3,4,5,6,7,8,9,10,11,12,13,14,15,16,17,18,19,20,21},
	{2,3,4,5,6,7,8,9,10,11,12,13,14,15,16,17,18,19,20,21},
	{2,3,4,5,6,7,8,9,10,11,12,13,14,15,16,17,18,19,20,21},
	{2,3,4,5,6,7,8,9,10,11,12,13,14,15,16,17,18,19,20,21},
	{2,3,4,5,6,7,8,9,10,11,12,13,14,15,16,17,18,19,20,21},
	{2,3,4,5,6,7,8,9,10,11,12,13,14,15,16,17,18,19,20,21},
	{2,3,4,5,6,7,9,11,12,13,14,15,16,17,18,19,21},
	{2,3,4,5,6,7,8,9,10,11,12,13,14,15,16,17,18,19,20,21},
	{2,3,4,5,6,7,8,9,10,11,12,13,14,15,16,17,18,19,20,21},
	{2,3,4,5,6,7,8,9,10,11,12,13,14,15,16,17,18,19,20,21},
	{2,5,8,9,10,11,13,14,15,16,18,20,21},
	{2,3,4,5,6,7,8,9,10,11,12,13,14,15,16,17,18,19,20,21},
	{2,3,4,6,7,8,9,10,11,12,13,17,19,20},
	{2,5,8,9,10,11,13,14,15,16,18,20,21}];
